min: c;

c = 3.1109221117043 * u2_t7_h3 + 2.72915879881116 * u2_t7_h4 + 3.32177827458862 * u2_t2_h5 + 3.32177827458862 * u2_t3_h5 + 3.32177827458862 * u2_t7_h5 + 3.67400916118219 * u2_t2_h6 + 3.67400916118219 * u2_t3_h6 + 3.67400916118219 * u2_t4_h6 + 3.67400916118219 * u2_t7_h6 + 3.67400916118219 * u2_t10_h6 + 4.37250280926239 * u2_t2_h7 + 4.37250280926239 * u2_t3_h7 + 4.37250280926239 * u2_t4_h7 + 4.37250280926239 * u2_t7_h7 + 4.37250280926239 * u2_t10_h7 + 5.50336706107611 * u2_t2_h8 + 5.50336706107611 * u2_t3_h8 + 5.50336706107611 * u2_t4_h8 + 5.50336706107611 * u2_t7_h8 + 5.50336706107611 * u2_t10_h8 + 4.581759070143 * u2_t2_h9 + 4.581759070143 * u2_t3_h9 + 4.581759070143 * u2_t4_h9 + 4.581759070143 * u2_t7_h9 + 4.581759070143 * u2_t10_h9 + 5.17093649061197 * u2_t2_h10 + 5.17093649061197 * u2_t3_h10 + 5.17093649061197 * u2_t4_h10 + 5.17093649061197 * u2_t7_h10 + 5.17093649061197 * u2_t10_h10 + 4.1382096664453 * u2_t1_h11 + 4.1382096664453 * u2_t2_h11 + 4.1382096664453 * u2_t3_h11 + 4.1382096664453 * u2_t4_h11 + 4.1382096664453 * u2_t7_h11 + 4.1382096664453 * u2_t10_h11 + 6.5197703549867 * u2_t1_h12 + 6.5197703549867 * u2_t3_h12 + 6.5197703549867 * u2_t4_h12 + 6.5197703549867 * u2_t7_h12 + 4.73900549942509 * u2_t1_h13 + 4.73900549942509 * u2_t3_h13 + 4.73900549942509 * u2_t4_h13 + 4.73900549942509 * u2_t7_h13 + 4.73900549942509 * u2_t9_h13 + 4.97386202874013 * u2_t1_h14 + 4.97386202874013 * u2_t3_h14 + 4.97386202874013 * u2_t4_h14 + 4.97386202874013 * u2_t7_h14 + 4.97386202874013 * u2_t9_h14 + 5.84840614464644 * u2_t1_h15 + 5.84840614464644 * u2_t3_h15 + 5.84840614464644 * u2_t4_h15 + 5.84840614464644 * u2_t7_h15 + 5.84840614464644 * u2_t9_h15 + 5.87615207226162 * u2_t1_h16 + 5.87615207226162 * u2_t3_h16 + 5.87615207226162 * u2_t4_h16 + 5.87615207226162 * u2_t7_h16 + 5.87615207226162 * u2_t9_h16 + 6.62374009545657 * u2_t1_h17 + 6.62374009545657 * u2_t3_h17 + 6.62374009545657 * u2_t4_h17 + 6.62374009545657 * u2_t7_h17 + 6.62374009545657 * u2_t9_h17 + 5.98260044018926 * u2_t1_h18 + 5.98260044018926 * u2_t3_h18 + 5.98260044018926 * u2_t4_h18 + 5.98260044018926 * u2_t6_h18 + 5.98260044018926 * u2_t7_h18 + 5.7953605462694 * u2_t1_h19 + 5.7953605462694 * u2_t3_h19 + 5.7953605462694 * u2_t4_h19 + 5.7953605462694 * u2_t5_h19 + 5.7953605462694 * u2_t6_h19 + 5.7953605462694 * u2_t7_h19 + 5.7415650228133 * u2_t1_h20 + 5.7415650228133 * u2_t3_h20 + 5.7415650228133 * u2_t4_h20 + 5.7415650228133 * u2_t6_h20 + 5.7415650228133 * u2_t7_h20 + 5.43088551145452 * u2_t1_h21 + 5.43088551145452 * u2_t3_h21 + 5.43088551145452 * u2_t6_h21 + 5.43088551145452 * u2_t7_h21 + 5.43088551145452 * u2_t8_h21 + 5.28031490464546 * u2_t1_h22 + 5.28031490464546 * u2_t3_h22 + 5.28031490464546 * u2_t7_h22 + 5.28031490464546 * u2_t8_h22 + 4.97947585053491 * u2_t3_h23 + 4.97947585053491 * u2_t7_h23 + 4.97947585053491 * u2_t8_h23;
0 <= u2_t1_h11 <= 1;
0 <= u2_t1_h12 <= 1;
0 <= u2_t1_h13 <= 1;
0 <= u2_t1_h14 <= 1;
0 <= u2_t1_h15 <= 1;
0 <= u2_t1_h16 <= 1;
0 <= u2_t1_h17 <= 1;
0 <= u2_t1_h18 <= 1;
0 <= u2_t1_h19 <= 1;
0 <= u2_t1_h20 <= 1;
0 <= u2_t1_h21 <= 1;
0 <= u2_t1_h22 <= 1;
u2_t1_h11 + u2_t1_h12 + u2_t1_h13 + u2_t1_h14 + u2_t1_h15 + u2_t1_h16 + u2_t1_h17 + u2_t1_h18 + u2_t1_h19 + u2_t1_h20 + u2_t1_h21 + u2_t1_h22 = 2;
0 <= u2_t2_h5 <= 1;
0 <= u2_t2_h6 <= 1;
0 <= u2_t2_h7 <= 1;
0 <= u2_t2_h8 <= 1;
0 <= u2_t2_h9 <= 1;
0 <= u2_t2_h10 <= 1;
0 <= u2_t2_h11 <= 1;
u2_t2_h5 + u2_t2_h6 + u2_t2_h7 + u2_t2_h8 + u2_t2_h9 + u2_t2_h10 + u2_t2_h11 = 2;
0 <= u2_t3_h5 <= 1;
0 <= u2_t3_h6 <= 1;
0 <= u2_t3_h7 <= 1;
0 <= u2_t3_h8 <= 1;
0 <= u2_t3_h9 <= 1;
0 <= u2_t3_h10 <= 1;
0 <= u2_t3_h11 <= 1;
0 <= u2_t3_h12 <= 1;
0 <= u2_t3_h13 <= 1;
0 <= u2_t3_h14 <= 1;
0 <= u2_t3_h15 <= 1;
0 <= u2_t3_h16 <= 1;
0 <= u2_t3_h17 <= 1;
0 <= u2_t3_h18 <= 1;
0 <= u2_t3_h19 <= 1;
0 <= u2_t3_h20 <= 1;
0 <= u2_t3_h21 <= 1;
0 <= u2_t3_h22 <= 1;
0 <= u2_t3_h23 <= 1;
u2_t3_h5 + u2_t3_h6 + u2_t3_h7 + u2_t3_h8 + u2_t3_h9 + u2_t3_h10 + u2_t3_h11 + u2_t3_h12 + u2_t3_h13 + u2_t3_h14 + u2_t3_h15 + u2_t3_h16 + u2_t3_h17 + u2_t3_h18 + u2_t3_h19 + u2_t3_h20 + u2_t3_h21 + u2_t3_h22 + u2_t3_h23 = 1;
0 <= u2_t4_h6 <= 1;
0 <= u2_t4_h7 <= 1;
0 <= u2_t4_h8 <= 1;
0 <= u2_t4_h9 <= 1;
0 <= u2_t4_h10 <= 1;
0 <= u2_t4_h11 <= 1;
0 <= u2_t4_h12 <= 1;
0 <= u2_t4_h13 <= 1;
0 <= u2_t4_h14 <= 1;
0 <= u2_t4_h15 <= 1;
0 <= u2_t4_h16 <= 1;
0 <= u2_t4_h17 <= 1;
0 <= u2_t4_h18 <= 1;
0 <= u2_t4_h19 <= 1;
0 <= u2_t4_h20 <= 1;
u2_t4_h6 + u2_t4_h7 + u2_t4_h8 + u2_t4_h9 + u2_t4_h10 + u2_t4_h11 + u2_t4_h12 + u2_t4_h13 + u2_t4_h14 + u2_t4_h15 + u2_t4_h16 + u2_t4_h17 + u2_t4_h18 + u2_t4_h19 + u2_t4_h20 = 3;
0 <= u2_t5_h19 <= 1;
u2_t5_h19 = 1;
0 <= u2_t6_h18 <= 1;
0 <= u2_t6_h19 <= 1;
0 <= u2_t6_h20 <= 1;
0 <= u2_t6_h21 <= 1;
u2_t6_h18 + u2_t6_h19 + u2_t6_h20 + u2_t6_h21 = 2;
0 <= u2_t7_h3 <= 1;
0 <= u2_t7_h4 <= 1;
0 <= u2_t7_h5 <= 1;
0 <= u2_t7_h6 <= 1;
0 <= u2_t7_h7 <= 1;
0 <= u2_t7_h8 <= 1;
0 <= u2_t7_h9 <= 1;
0 <= u2_t7_h10 <= 1;
0 <= u2_t7_h11 <= 1;
0 <= u2_t7_h12 <= 1;
0 <= u2_t7_h13 <= 1;
0 <= u2_t7_h14 <= 1;
0 <= u2_t7_h15 <= 1;
0 <= u2_t7_h16 <= 1;
0 <= u2_t7_h17 <= 1;
0 <= u2_t7_h18 <= 1;
0 <= u2_t7_h19 <= 1;
0 <= u2_t7_h20 <= 1;
0 <= u2_t7_h21 <= 1;
0 <= u2_t7_h22 <= 1;
0 <= u2_t7_h23 <= 1;
u2_t7_h3 + u2_t7_h4 + u2_t7_h5 + u2_t7_h6 + u2_t7_h7 + u2_t7_h8 + u2_t7_h9 + u2_t7_h10 + u2_t7_h11 + u2_t7_h12 + u2_t7_h13 + u2_t7_h14 + u2_t7_h15 + u2_t7_h16 + u2_t7_h17 + u2_t7_h18 + u2_t7_h19 + u2_t7_h20 + u2_t7_h21 + u2_t7_h22 + u2_t7_h23 = 3;
0 <= u2_t8_h21 <= 1;
0 <= u2_t8_h22 <= 1;
0 <= u2_t8_h23 <= 1;
u2_t8_h21 + u2_t8_h22 + u2_t8_h23 = 2;
0 <= u2_t9_h13 <= 1;
0 <= u2_t9_h14 <= 1;
0 <= u2_t9_h15 <= 1;
0 <= u2_t9_h16 <= 1;
0 <= u2_t9_h17 <= 1;
u2_t9_h13 + u2_t9_h14 + u2_t9_h15 + u2_t9_h16 + u2_t9_h17 = 1;
0 <= u2_t10_h6 <= 1;
0 <= u2_t10_h7 <= 1;
0 <= u2_t10_h8 <= 1;
0 <= u2_t10_h9 <= 1;
0 <= u2_t10_h10 <= 1;
0 <= u2_t10_h11 <= 1;
u2_t10_h6 + u2_t10_h7 + u2_t10_h8 + u2_t10_h9 + u2_t10_h10 + u2_t10_h11 = 2;
